NAME: S076D4_25
COMMENT: 2179.1
VEHICLE: 37
TIME: 600
DIMENSION: 76
CAPACITY: 160
DELIVERY_SECTION
0 0 0
1 1 40
2 1 40
3 1 1.6
4 1 1.6
5 1 1.6
6 1 1.2
7 2 40
8 2 1.6
9 2 1.6
10 2 1.6
11 2 1.2
12 3 40
13 3 40
14 3 40
15 3 16
16 3 1.6
17 3 1.4
18 4 40
19 4 16
20 4 8
21 4 1
22 5 16
23 5 16
24 5 1.6
25 5 1.6
26 5 0.8
27 6 16
28 6 16
29 6 1.6
30 6 1.6
31 6 1.6
32 6 1.6
33 6 0.6
34 7 40
35 7 40
36 7 40
37 7 16
38 7 1.6
39 7 1.6
40 7 1.6
41 7 1.6
42 7 0.6
43 8 40
44 8 1
45 9 40
46 9 8
47 9 1.6
48 9 1.4
49 10 16
50 10 16
51 10 1
52 11 40
53 11 40
54 11 40
55 11 16
56 11 1.6
57 11 0.4
58 12 16
59 12 1.6
60 12 1.6
61 12 1.6
62 12 1.2
63 13 40
64 13 40
65 13 16
66 13 1.6
67 13 1.6
68 13 1.6
69 13 1.2
70 14 16
71 14 8
72 14 1.6
73 14 1.6
74 14 1.6
75 14 0.2
76 15 40
77 15 40
78 15 16
79 15 16
80 15 1.6
81 15 1.6
82 15 1.6
83 15 1.2
84 16 16
85 16 8
86 16 1
87 17 40
88 17 40
89 17 40
90 17 8
91 17 1.6
92 17 1.6
93 17 1.6
94 17 1.6
95 17 0.6
96 18 16
97 18 8
98 18 1.6
99 18 0.4
100 19 40
101 19 40
102 19 1.6
103 19 0.4
104 20 16
105 20 16
106 20 1.6
107 20 1.6
108 20 1.6
109 20 0.2
110 21 40
111 21 40
112 21 40
113 21 16
114 21 1.6
115 21 1.6
116 21 1.6
117 21 1.6
118 21 0.6
119 22 16
120 22 8
121 22 1
122 23 16
123 23 16
124 23 1.6
125 23 1.4
126 24 40
127 24 1.6
128 24 1.6
129 24 0.8
130 25 40
131 25 40
132 25 40
133 25 1.6
134 25 1.6
135 25 0.8
136 26 16
137 26 8
138 27 40
139 27 8
140 27 1.6
141 27 0.4
142 28 40
143 28 1.6
144 28 1.6
145 28 1.6
146 28 1.6
147 28 0.6
148 29 40
149 29 40
150 29 1.6
151 29 1.6
152 29 0.8
153 30 16
154 30 8
155 31 40
156 31 40
157 31 16
158 31 1.6
159 31 1.6
160 31 0.8
161 32 40
162 32 1.6
163 32 1.6
164 32 1.6
165 32 1.6
166 32 0.6
167 33 16
168 33 8
169 33 1.6
170 33 1.6
171 33 1.6
172 33 1.6
173 33 0.6
174 34 16
175 34 8
176 35 40
177 35 40
178 35 40
179 35 8
180 35 1.6
181 35 1.6
182 35 1.6
183 35 0.2
184 36 40
185 36 1.6
186 36 0.4
187 37 40
188 37 8
189 37 1.6
190 37 1.6
191 37 0.8
192 38 16
193 38 8
194 38 1
195 39 40
196 39 40
197 39 40
198 39 16
199 39 1.6
200 39 1.6
201 39 1.6
202 39 1.6
203 39 0.6
204 40 16
205 40 16
206 40 1
207 41 40
208 41 40
209 41 16
210 42 16
211 42 8
212 42 1.6
213 42 1.4
214 43 40
215 43 40
216 43 40
217 43 1.6
218 43 1.6
219 43 1.6
220 43 1.2
221 44 16
222 44 1.6
223 44 1.6
224 44 0.8
225 45 40
226 45 40
227 45 40
228 45 1.6
229 45 1.6
230 45 1.6
231 45 1.2
232 46 16
233 46 8
234 46 1.6
235 46 1.6
236 46 1.6
237 46 1.6
238 46 0.6
239 47 40
240 47 40
241 47 1.6
242 47 1.6
243 47 1.6
244 47 1.2
245 48 16
246 48 8
247 48 1.6
248 48 1.6
249 48 0.8
250 49 40
251 49 40
252 49 40
253 49 16
254 49 1.6
255 49 1.6
256 49 1.6
257 49 0.2
258 50 16
259 50 16
260 50 1.6
261 50 1.4
262 51 16
263 51 16
264 52 40
265 52 8
266 52 1
267 53 40
268 53 40
269 53 40
270 53 16
271 53 1.6
272 53 1.6
273 53 1.6
274 53 1.6
275 53 0.6
276 54 40
277 54 1
278 55 40
279 55 8
280 55 1.6
281 55 1.6
282 55 1.6
283 55 1.6
284 55 0.6
285 56 40
286 56 16
287 56 16
288 56 1
289 57 40
290 57 40
291 57 40
292 57 8
293 57 1.6
294 57 1.6
295 57 1.6
296 57 1.6
297 57 0.6
298 58 40
299 58 8
300 58 1
301 59 40
302 59 40
303 59 16
304 59 1.6
305 59 1.6
306 59 1.6
307 59 0.2
308 60 40
309 60 40
310 60 16
311 60 1.6
312 60 0.4
313 61 40
314 61 40
315 61 40
316 61 1
317 62 40
318 62 16
319 62 1.6
320 62 1.6
321 62 0.8
322 63 40
323 63 40
324 63 40
325 63 8
326 63 1.6
327 63 1.4
328 64 40
329 64 40
330 64 40
331 64 1
332 65 40
333 65 40
334 65 16
335 65 8
336 65 1
337 66 40
338 66 16
339 66 16
340 67 40
341 67 40
342 67 40
343 67 16
344 67 1.6
345 67 1.6
346 67 1.6
347 67 1.6
348 67 0.6
349 68 40
350 68 40
351 68 40
352 68 16
353 68 1.6
354 68 0.4
355 69 40
356 69 40
357 69 8
358 69 1
359 70 40
360 70 40
361 70 1.6
362 70 1.6
363 70 1.6
364 70 1.6
365 70 0.6
366 71 40
367 71 40
368 71 40
369 71 16
370 71 1.6
371 71 1.4
372 72 40
373 72 40
374 72 40
375 72 16
376 72 1.6
377 72 1.6
378 72 1.6
379 72 1.6
380 72 0.6
381 73 40
382 73 16
383 73 16
384 73 1.6
385 73 0.4
386 74 40
387 74 40
388 74 16
389 74 1.6
390 74 1.6
391 74 1.6
392 74 1.6
393 74 0.6
394 75 40
395 75 40
396 75 40
397 75 1.6
398 75 1.6
399 75 0.8
PICKUP_SECTION
NODE_SECTION
40 40

22 22

36 26

21 45

45 35

55 20

33 34

50 50

55 45

26 59

40 66

55 65

35 51

62 35

62 57

62 24

21 36

33 44

 9 56

62 48

66 14

44 13

26 13

11 28

 7 43

17 64

41 46

55 34

35 16

52 26

43 26

31 76

22 53

26 29

50 40

55 50

54 10

60 15

47 66

30 60

30 50

12 17

15 14

16 19

21 48

50 30

51 42

50 15

48 21

12 38

15 56

29 39

54 38

55 57

67 41

10 70

 6 25

65 27

40 60

70 64

64  4

36  6

30 20

20 30

15  5

50 70

57 72

45 42

38 33

50  4

66  8

59  5

35 60

27 24

40 20

40 37
DISTANCE_SECTION
DEPOT_SECTION
0
EOF